WARNING: for repeatability, setting FPU to use double precision
============================[ Problem Statistics ]=============================
|                                                                             |
|  Number of variables:           373                                         |
|  Number of clauses:            1639                                         |
|  Parse time:                   0.00 s                                       |
|                                                                             |
============================[ Search Statistics ]==============================
| Conflicts |          ORIGINAL         |          LEARNT          | Progress |
|           |    Vars  Clauses Literals |    Limit  Clauses Lit/Cl |          |
===============================================================================
===============================================================================
restarts              : 1
conflicts             : 36             (inf /sec)
decisions             : 193            (0.00 % random) (inf /sec)
propagations          : 1311           (inf /sec)
conflict literals     : 173            (27.92 % deleted)
Memory used           : 5.00 MB
CPU time              : 0 s

UNSATISFIABLE
